<number of tasks>
50

<cycle time>
1000

<order strength>
0.198


<task times>
1 69
2 179
3 120
4 36
5 29
6 246
7 67
8 146
9 99
10 133
11 173
12 52
13 96
14 175
15 79
16 81
17 282
18 130
19 21
20 158
21 233
22 140
23 76
24 211
25 119
26 54
27 149
28 108
29 153
30 171
31 177
32 41
33 203
34 181
35 35
36 32
37 26
38 282
39 35
40 32
41 57
42 131
43 225
44 94
45 49
46 145
47 101
48 32
49 217
50 86

<precedence relations>
1,9
2,11
2,44
3,14
3,15
6,8
6,10
6,13
7,12
8,17
9,19
9,43
11,16
12,18
13,21
14,20
15,22
15,45
17,25
17,27
18,23
22,24
23,27
23,30
23,31
24,28
24,42
25,26
25,29
25,32
27,38
28,40
29,34
29,36
29,37
31,33
31,35
33,39
35,40
37,42
38,41
38,42
38,43
40,44
40,46
41,45
41,47
41,50
42,46
42,48
43,49

<end>
